1000
[150,151,152,153,154,155,156,157,158,159,160,161,162,163,164,165,166,167,168,169,170,171,172,173,174,175,176,177,178,180,182,183,184,185,186,187,188,189,190,191,192,194,195,197,198,199,200]
[3,2,1,5,1,3,2,3,4,3,2,2,3,1,2,3,4,1,2,1,3,2,1,3,2,3,2,3,2,4,4,2,2,2,4,4,2,1,5,4,2,4,1,4,3,1,2]
